p cnf 55 164
a 41 47 0
e 1 2 3 4 5 6 7 8 9 10 11 12 13 14 15 16 17 18 19 20 21 22 23 24 25 26 27 28 29 30 31 32 33 34 35 36 37 38 39 40 42 43 44 45 46 48 49 50 51 52 53 54 55 0
-1 -2 -3 0
1 2 -3 0
-1 2 3 0
1 -2 3 0
-3 4 -5 0
3 -4 -5 0
-3 -4 5 0
3 4 5 0
8 6 0
8 7 0
-6 -7 -8 0
-9 4 0
-9 -8 0
-4 8 9 0
-5 -9 -10 0
5 9 -10 0
-5 9 10 0
5 -9 10 0
-10 7 -11 0
10 -7 -11 0
-10 -7 11 0
10 7 11 0
-12 11 0
-12 8 0
-11 -8 12 0
-14 -13 0
-14 8 0
13 -8 14 0
15 13 -16 0
-15 -13 -16 0
15 -13 16 0
-15 13 16 0
-17 -5 0
-17 -16 0
5 16 17 0
-18 14 0
-18 -17 0
-14 17 18 0
-12 -18 -19 0
12 18 -19 0
-12 18 19 0
12 -18 19 0
6 15 -20 0
-6 -15 -20 0
6 -15 20 0
-6 15 20 0
21 -3 0
21 -20 0
3 20 -21 0
5 -21 -22 0
-5 21 -22 0
5 21 22 0
-5 -21 22 0
23 22 0
23 9 0
-22 -9 -23 0
-24 8 0
-24 -6 0
-8 6 24 0
26 -25 0
26 5 0
25 -5 -26 0
-27 24 0
-27 -26 0
-24 26 27 0
28 7 0
28 -4 0
-7 4 -28 0
29 -28 0
29 1 0
28 -1 -29 0
-30 10 0
-30 -29 0
-10 29 30 0
-31 -27 0
-31 -30 0
27 30 31 0
33 -32 0
33 -20 0
32 20 -33 0
-34 -9 0
-34 32 0
9 -32 34 0
35 1 0
35 20 0
-1 -20 -35 0
36 34 0
36 35 0
-34 -35 -36 0
6 -36 -37 0
-6 36 -37 0
6 36 37 0
-6 -36 37 0
38 -37 0
38 -8 0
37 8 -38 0
-39 33 0
-39 -38 0
-33 38 39 0
-41 3 0
-41 -40 0
-3 40 41 0
42 -39 0
42 -41 0
39 41 -42 0
43 -31 0
43 -42 0
31 42 -43 0
-44 -23 0
-44 -43 0
23 43 44 0
28 8 -45 0
-28 -8 -45 0
28 -8 45 0
-28 8 45 0
-44 45 -46 0
44 -45 -46 0
-44 -45 46 0
44 45 46 0
47 19 0
47 46 0
-19 -46 -47 0
48 5 0
48 1 0
-5 -1 -48 0
49 13 0
49 -48 0
-13 48 -49 0
40 4 -50 0
-40 -4 -50 0
40 -4 50 0
-40 4 50 0
51 50 0
51 -20 0
-50 20 -51 0
5 -7 -52 0
-5 7 -52 0
5 7 52 0
-5 -7 52 0
-53 51 0
-53 -52 0
-51 52 53 0
-54 49 0
-54 53 0
-49 -53 54 0
55 -47 0
55 54 0
47 -54 -55 0
3 -48 18 -33 -24 0
-48 -38 -20 -25 18 0
-16 -8 18 -29 46 14 -52 0
-3 -26 0
11 -13 -17 -55 0
7 4 22 -30 8 -35 -38 0
-15 38 49 -28 31 12 0
-45 32 -40 0
23 -40 -38 -51 4 37 0
-32 4 -47 -45 14 26 0
37 -54 -2 27 41 0
-37 32 6 -8 -51 23 53 0
35 -4 7 32 -15 46 16 0
-40 -32 -50 -41 -51 -54 -12 0
-27 47 26 -45 -28 0
55 0
